8	8
2	2	0	9	6	8	5	3	7	7	4	2	3	2	1	2
5	8	0	2	2	6	6	8	3	4	1	3	4	4	7	6
6	6	3	5	0	2	7	4	2	9	5	4	1	4	4	6
2	6	6	5	1	6	7	3	3	9	0	8	4	8	5	9
0	7	6	1	5	7	2	8	1	9	7	4	4	1	3	6
7	6	6	3	3	8	1	2	2	7	4	8	5	1	0	4
0	9	2	5	6	5	3	9	4	6	1	2	5	3	7	7
6	7	3	6	4	4	0	9	2	7	7	3	5	8	1	5
